% demand
num_movements = 32;
loading_factor = [1400, 1550, 2000, 1200, 1100, 1750, 800, 1950, 1550, 1050, 950, 1900, 1500, 1550, 1650, 1750, 1100, 1300, 1650, 1300, 1550, 850, 1800, 1700, 850, 950, 1300, 1500, 1300, 1100, 1950, 1000];
pickup_time = [0, 0, 0, 0, 1, 1, 2, 2, 2, 2, 3, 3, 3, 4, 4, 4, 5, 5, 5, 5, 6, 6, 6, 6, 9, 9, 9, 9, 10, 10, 12, 12];
delivery_time = [2, 2, 1, 2, 2, 2, 5, 3, 3, 3, 4, 4, 4, 5, 6, 5, 9, 6, 6, 6, 9, 9, 9, 9, 13, 12, 12, 13, 12, 13, 13, 13];

% transporter definition
total_capacity = 7000;
num_decks = 3;
capacity = [3000, 1000, 3000];

% ways out of decks
num_ways_out = 1;
paths_out = array3d(decks, ways_out, decks, [
% ways out of deck d1
2, 3, 0, 

% ways out of deck d2
3, 0, 0, 

% ways out of deck d3
0, 0, 0,	

]);

